
Gurobi 11.0.2 (win64) logging started Wed Aug  7 20:35:27 2024

Set parameter LogFile to value "D:\Documenti\Scuola\Laurea magistrale unibs\laurea-unibs-mkfsp\output\2024-08-07T17_25_17.381079\logs\instance08_bucket1.log"
Set parameter TimeLimit to value 100
Set parameter MIPGap to value 0
Gurobi Optimizer version 11.0.2 build v11.0.2rc0 (win64 - Windows 10.0 (19045.2))

CPU model: Intel(R) Core(TM) i5-4670 CPU @ 3.40GHz, instruction set [SSE2|AVX|AVX2]
Thread count: 4 physical cores, 4 logical processors, using up to 4 threads

Optimize a model with 2415 rows, 9978 columns and 278775 nonzeros
Model fingerprint: 0xee310033
Variable types: 0 continuous, 9978 integer (9864 binary)
Coefficient statistics:
  Matrix range     [1e+00, 1e+03]
  Objective range  [7e+02, 8e+03]
  Bounds range     [1e+00, 1e+00]
  RHS range        [1e+00, 7e+04]
Found heuristic solution: objective -0.0000000
Presolve time: 0.51s
Presolved: 2415 rows, 9978 columns, 278775 nonzeros
Variable types: 0 continuous, 9978 integer (9864 binary)

Root relaxation: objective 6.858390e+05, 1866 iterations, 0.08 seconds (0.10 work units)

    Nodes    |    Current Node    |     Objective Bounds      |     Work
 Expl Unexpl |  Obj  Depth IntInf | Incumbent    BestBd   Gap | It/Node Time

     0     0 685839.000    0   86   -0.00000 685839.000      -     -    1s
H    0     0                    656529.00000 685839.000  4.46%     -    1s
H    0     0                    659905.00000 685839.000  3.93%     -    1s
     0     0 685839.000    0  225 659905.000 685839.000  3.93%     -    2s
H    0     0                    670358.00000 685839.000  2.31%     -    4s
H    0     0                    671201.00000 685839.000  2.18%     -    4s
     0     0 685839.000    0  153 671201.000 685839.000  2.18%     -    4s
     0     0 685839.000    0   75 671201.000 685839.000  2.18%     -    7s
H    0     0                    672643.00000 685839.000  1.96%     -    8s
     0     0 685839.000    0  156 672643.000 685839.000  1.96%     -    8s
H    0     0                    673407.00000 685839.000  1.85%     -   11s
     0     0 685839.000    0   58 673407.000 685839.000  1.85%     -   11s
     0     0 685839.000    0  180 673407.000 685839.000  1.85%     -   12s
H    0     0                    673424.00000 685839.000  1.84%     -   17s
     0     0 685839.000    0  112 673424.000 685839.000  1.84%     -   17s
     0     0 685839.000    0  234 673424.000 685839.000  1.84%     -   17s
H    0     0                    673434.00000 685839.000  1.84%     -   29s
H    0     0                    673455.00000 685839.000  1.84%     -   29s
     0     0 685839.000    0   65 673455.000 685839.000  1.84%     -   29s
     0     0 685839.000    0   48 673455.000 685839.000  1.84%     -   29s
     0     2 685839.000    0   48 673455.000 685839.000  1.84%     -   34s
     3     8 685839.000    2  331 673455.000 685839.000  1.84%  1071   35s
H   27    32                    674131.00000 685839.000  1.74%   641   39s
H   28    32                    675000.00000 685839.000  1.61%   621   39s
H   29    32                    676951.00000 685839.000  1.31%   612   39s
    31    50 685839.000    7  299 676951.000 685839.000  1.31%   594   41s
H   85    97                    677658.00000 685839.000  1.21%   879   44s
    96   184 685770.100   30  211 677658.000 685839.000  1.21%   820   51s
H  120   184                    678343.00000 685839.000  1.11%   710   51s
H  151   184                    678370.00000 685839.000  1.10%   682   51s
H  184   462                    679957.00000 685839.000  0.87%   739   63s
H  468   630                    680778.00000 685839.000  0.74%   584   75s
H  634   630                    681516.00000 685839.000  0.63%   517   75s
   640  1097 685839.000  164   96 681516.000 685839.000  0.63%   513   87s
  1121  1765 685839.000  273  106 681516.000 685839.000  0.63%   443   99s
H 1286  1765                    682222.00000 685839.000  0.53%   406   99s
H 1495  1765                    682934.00000 685839.000  0.43%   361   99s
  1813  1794 685839.000  401  118 682934.000 685839.000  0.43%   325  100s

Cutting planes:
  Gomory: 31
  Cover: 468
  Clique: 475
  MIR: 207
  StrongCG: 18
  Zero half: 1

Explored 1852 nodes (686596 simplex iterations) in 100.02 seconds (133.62 work units)
Thread count was 4 (of 4 available processors)

Solution count 10: 682934 682222 681516 ... 675000

Time limit reached
Best objective 6.829340000000e+05, best bound 6.858390000000e+05, gap 0.4254%
